	Costo	Nv	Tiempo
1	1375,85	5	0,406
2	2138,1	10	0,422
3	2640,1	8	0,531
4	4367,53	12	0,812
5	5646,19	17	1,28
6	1229,52	9	0,375
7	2279,11	20	0,437
8	2812,89	17	0,546
9	4452,83	31	0,828
10	5315,25	38	1,265
11	4052,76	7	0,625
12	3304,45	10	0,625
13	5240,63	16	0,75
14	3292,23	13	0,578
